59187
58662
58094
61000
58092
58803
58607
58917
59384
59193
110863
108659
108932
110037
108423
110841
106075
106686
109825
106723
151790
148772
151900
151275
151948
152109
153131
153520
149155
149704
